%%%mzn-stat: initTime=0.004405982
%%%mzn-stat: objective=437
%%%mzn-stat: nodes=1264
%%%mzn-stat: restarts=0
%%%mzn-stat: peakDepth=134
%%%mzn-stat: solveTime=0.053768496
%%%mzn-stat: variables=422
%%%mzn-stat: propagators=291
%%%mzn-stat: failures=492
%%%mzn-stat: propagations=91980
%%%mzn-stat: nogoods=492
%%%mzn-stat: AverageConflictSize=9.101626016260163
%%%mzn-stat: NumUnitNogoodsLearned=436
%%%mzn-stat: AverageLearnedNogoodLength=2.8272357723577235
%%%mzn-stat: AverageBacktrackAmount=0
%%%mzn-stat: AverageLbd=1.6565040650406504
%%%mzn-stat-end
maxleg = 437;
succ = array1d(1..20,[18, 14, 13, 5, 16, 12, 17, 19, 3, 7, 9, 4, 15, 11, 20, 1, 2, 10, 6, 8]);
% time elapsed: 1.17 s
----------
==========
% time elapsed: 1.17 s
%%%mzn-stat: initTime=0.004405982
%%%mzn-stat: objective=437
%%%mzn-stat: nodes=1264
%%%mzn-stat: restarts=0
%%%mzn-stat: peakDepth=134
%%%mzn-stat: solveTime=0.053771898
%%%mzn-stat: variables=422
%%%mzn-stat: propagators=291
%%%mzn-stat: failures=492
%%%mzn-stat: propagations=91980
%%%mzn-stat: nogoods=492
%%%mzn-stat: AverageConflictSize=9.101626016260163
%%%mzn-stat: NumUnitNogoodsLearned=436
%%%mzn-stat: AverageLearnedNogoodLength=2.8272357723577235
%%%mzn-stat: AverageBacktrackAmount=0
%%%mzn-stat: AverageLbd=1.6565040650406504
%%%mzn-stat-end
